CPXPARAM_Simplex_Display                         2
CPXPARAM_TimeLimit                               7200
CPXPARAM_Read_APIEncoding                        "*"
CPXPARAM_Output_CloneLog                         1
CPXPARAM_MIP_Tolerances_MIPGap                   0.035000000000000003
CPXPARAM_MIP_Interval                            20
CPXPARAM_MIP_Strategy_VariableSelect             1
CPXPARAM_Barrier_Display                         2
Tried aggregator 1 time.
MIP Presolve eliminated 10 rows and 0 columns.
MIP Presolve added 39744 rows and 19872 columns.
MIP Presolve modified 7182 coefficients.
Reduced MIP has 39814 rows, 20448 columns, and 82873 nonzeros.
Reduced MIP has 20448 binaries, 0 generals, 0 SOSs, and 0 indicators.
Presolve time = 0.03 sec. (13.19 ticks)
Found incumbent of value 21133.845851 after 0.14 sec. (74.57 ticks)
Probing fixed 22 vars, tightened 0 bounds.
Probing time = 0.16 sec. (18.51 ticks)
Tried aggregator 1 time.
MIP Presolve eliminated 27531 rows and 7681 columns.
MIP Presolve modified 264 coefficients.
Reduced MIP has 12283 rows, 12767 columns, and 39837 nonzeros.
Reduced MIP has 12767 binaries, 0 generals, 0 SOSs, and 0 indicators.
Presolve time = 0.06 sec. (44.35 ticks)
Probing time = 0.04 sec. (9.48 ticks)
Tried aggregator 1 time.
Reduced MIP has 12283 rows, 12767 columns, and 39837 nonzeros.
Reduced MIP has 12767 binaries, 0 generals, 0 SOSs, and 0 indicators.
Presolve time = 0.05 sec. (26.21 ticks)
Probing time = 0.04 sec. (9.51 ticks)
Clique table members: 2896.
MIP emphasis: balance optimality and feasibility.
MIP search method: dynamic search.
Parallel mode: deterministic, using up to 32 threads.
Root relaxation solution time = 0.42 sec. (223.66 ticks)

        Nodes                                         Cuts/
   Node  Left     Objective  IInf  Best Integer    Best Bound    ItCnt     Gap

*     0+    0                          300.2183        0.0000           100.00%
      0     0      287.1732   138      300.2183      287.1732     1256    4.35%
      0     0      287.3478   104      300.2183      Cuts: 80     2091    4.29%
      0     0      287.4349   125      300.2183      Cuts: 91     3202    4.26%
      0     0      287.4883   139      300.2183      Cuts: 83     4562    4.24%
      0     0      287.4982    97      300.2183     Cuts: 138     4934    4.24%
      0     0      287.5048   113      300.2183      Cuts: 80     5544    4.23%
      0     0      287.5055   113      300.2183      Cuts: 80     6021    4.23%
      0     2      287.5055   113      300.2183      287.5389     6021    4.22%
Elapsed time = 5.33 sec. (3013.15 ticks, tree = 0.01 MB, solutions = 2)
GUB cover cuts applied:  7
Clique cuts applied:  27
Implied bound cuts applied:  255
Mixed integer rounding cuts applied:  1
Zero-half cuts applied:  6
Gomory fractional cuts applied:  2

Root node processing (before b&c):
  Real time             =    5.03 sec. (2986.72 ticks)
Parallel b&c, 32 threads:
  Real time             =    6.10 sec. (2942.52 ticks)
  Sync time (average)   =    2.22 sec.
  Wait time (average)   =    0.08 sec.
                          ------------
Total (root+branch&cut) =   11.12 sec. (5929.24 ticks)
